r = [
0,10,4,12,14,13,10,9,8,16,8,0
];
p = [
0,19,4,16,18,28,10,10,16,21,26,0
];
e = [
0,12,4,10,9,6,16,11,17,20,16,0
];
d = [
0,209,205,188,238,237,227,172,161,177,168,262
];
d_bar = [
0,226,209,202,254,262,236,181,175,196,191,262
];
w = [
0,0.705882353,1,0.714285714,0.5625,0.24,1.777777778,1.222222222,1.214285714,1.052631579,0.695652174,0
];
